unsat
(define-fun f ((x (_ BitVec 64))) (_ BitVec 64) (im (bvand #b0000000000000000000000000000000000000000000000000000000000000001 (arba x)) (arba (bvxor x (smol x))) (arba (ehad (ehad x)))))
2.42user 0.06system 0:02.49elapsed 99%CPU (0avgtext+0avgdata 163056maxresident)k
0inputs+8outputs (0major+36119minor)pagefaults 0swaps
